Version identifier: 20.1.0.0 | 2020-11-10 | 9bedb6d68
CPXPARAM_Threads                                 1
CPXPARAM_TimeLimit                               7200
CPXPARAM_MIP_Tolerances_MIPGap                   0
Generic callback                                 0x60
1 of 1 MIP starts provided solutions.
MIP start 'm1' defined initial solution with objective 3199.5401.
Tried aggregator 1 time.
Reduced MIP has 501001 rows, 500501 columns, and 1500500 nonzeros.
Reduced MIP has 500 binaries, 0 generals, 0 SOSs, and 0 indicators.
Presolve time = 0.45 sec. (400.65 ticks)
Probing time = 0.06 sec. (62.52 ticks)
Tried aggregator 1 time.
Reduced MIP has 501001 rows, 500501 columns, and 1500500 nonzeros.
Reduced MIP has 500 binaries, 0 generals, 0 SOSs, and 0 indicators.
Presolve time = 0.44 sec. (392.53 ticks)
Probing time = 0.06 sec. (62.52 ticks)
MIP emphasis: balance optimality and feasibility.
MIP search method: dynamic search.
Parallel mode: none, using 1 thread.
Root relaxation solution time = 0.17 sec. (192.94 ticks)

        Nodes                                         Cuts/
   Node  Left     Objective  IInf  Best Integer    Best Bound    ItCnt     Gap

*     0+    0                         3199.5401     5432.0000            69.77%
      0     0     3213.2547    22     3199.5401     5432.0000        0   69.77%
      0     2     3213.2547    22     3199.5401     3213.2541        0    0.43%
Elapsed time = 531.05 sec. (479097.77 ticks, tree = 0.01 MB, solutions = 1)
      1     3     3212.8934    22     3199.5401     3213.2535     1732    0.43%
*     2     2      integral     0     3211.6667     3213.2535     2902    0.05%
      2     2     3211.6667     0     3211.6667     3212.8934     2902    0.04%
      3     3     3212.7608    22     3211.6667     3212.8934     3859    0.04%
      4     2        cutoff           3211.6667     3212.7606     4542    0.03%
      5     3     3212.4377    26     3211.6667     3212.7603    10870    0.03%
      6     2        cutoff           3211.6667     3212.4376    14750    0.02%
      7     3     3212.0263    30     3211.6667     3212.4368    18300    0.02%
      8     4     3211.6988    18     3211.6667     3212.0261    21837    0.01%
      9     3        cutoff           3211.6667     3212.0261    21871    0.01%
     11     1        cutoff           3211.6667     3212.0259    22309    0.01%
Elapsed time = 676.61 sec. (551007.15 ticks, tree = 0.01 MB, solutions = 2)
     12     2     3211.7172    28     3211.6667     3211.7170    23785    0.00%

User cuts applied:  2

Root node processing (before b&c):
  Real time             =  530.97 sec. (479009.16 ticks)
Sequential b&c:
  Real time             =  198.60 sec. (127034.75 ticks)
                          ------------
Total (root+branch&cut) =  729.57 sec. (606043.90 ticks)
@Parameters: 
is_S_cut                                true
is_add_all_yinF                         true
is_start_value                          true
is_usercut                              true
is_visualization                        false
uc_only_rootnode                        false

data                                    Qi
fn                                      data/Qi/instance_1000_500.csv
mode                                    ZLP
solver                                  cplex

p                                       10
r                                       5

EPS                                     1.0e-06
EPS_vio                                 1.0e-04
beta                                    0.10
gap                                     0.00
nodelimit                               Inf
timelimit                               7200.00


@PrintInfos
ItCnt: 23895
Current gap: 0.00 %
Termination Status: OPTIMAL
Primal Status: FEASIBLE_POINT
Solve Time: 729.57 sec
Objective Value: 3211.666714
Number of Nodes:     15

CutInfo: [phase] num / time (sec) 
ZLP             [phase1]     0 / 0.00 [rLC]     4 / 15.50 [rUC]     2 / 9.54 [sLC]     0 / 2.47 [sUC]     1 / 54.92 
OldSubmodular   [phase1]     0 / 0.00 [rLC]     0 / 0.00 [rUC]     0 / 0.00 [sLC]     0 / 0.00 [sUC]     0 / 0.00 
NewSubmodular   [phase1]     0 / 0.00 [rLC]     0 / 0.00 [rUC]     0 / 0.00 [sLC]     0 / 0.00 [sUC]     0 / 0.00 
PMP             [phase1]     0 / 0.00 [rLC]     5 / 11.61 [rUC]     2 / 7.76 [sLC]     1 / 2.19 [sUC]    13 / 46.01 
Separation Round: [phase1] 0  [rLC] 5  [rUC] 2  [sLC] 1  [sUC] 13
Root Best Bound 3212.893374
Root Best Integer: 3211.666714
Best Bound: 3211.666714
Best Integer: 3211.666714

